data/mip_solutions/furman_sahinidis/transportation/4sp1_cplex.sol
Elapsed time: 0.0280120372772
Nodes explored: 0
Upper bound: 5.0
Lower bound: 5.0
y[0,0]=1
y[1,0]=1
y[1,1]=1
y[1,2]=1
y[2,1]=1
q[0,2,0,2]=555.4
q[0,2,0,3]=611.5
q[0,3,0,3]=833.5
q[1,1,0,1]=144.5
q[1,1,0,2]=456.1
q[1,1,1,1]=1844.8
q[1,1,1,2]=754.6
q[1,2,1,2]=52.5
q[1,2,2,4]=747.5
q[2,0,1,0]=345.9
