data/mip_solutions/furman_sahinidis/transportation/4sp1_cplex.log

Log started (V12.6.3.0) Tue Jun  6 16:47:33 2017

New value for default parallel thread count: 1

Problem '/tmp/tmp2LKGlI.pyomo.lp' read.
Read time = 0.00 sec. (0.02 ticks)

Problem name         : /tmp/tmp2LKGlI.pyomo.lp
Objective sense      : Minimize
Variables            :     236  [Nneg: 226,  Binary: 9,  General Integer: 1]
Objective nonzeros   :       1
Linear constraints   :     131  [Less: 9,  Equal: 122]
  Nonzeros           :     783
  RHS nonzeros       :      13

Variables            : Min LB: 0.000000         Max UB: 1.000000       
Objective nonzeros   : Min   : 1.000000         Max   : 1.000000       
Linear constraints   :
  Nonzeros           : Min   : 1.000000         Max   : 2651.900       
  RHS nonzeros       : Min   : 1.000000         Max   : 3200.000       
Tried aggregator 2 times.
MIP Presolve eliminated 117 rows and 218 columns.
MIP Presolve added 1 rows and 1 columns.
Aggregator did 2 substitutions.
Reduced MIP has 13 rows, 17 columns, and 45 nonzeros.
Reduced MIP has 3 binaries, 1 generals, 0 SOSs, and 0 indicators.
Presolve time = 0.00 sec. (0.20 ticks)
Found incumbent of value 7.000000 after 0.00 sec. (0.26 ticks)
Probing fixed 0 vars, tightened 1 bounds.
Probing time = 0.00 sec. (0.00 ticks)
Tried aggregator 1 time.
Reduced MIP has 13 rows, 17 columns, and 45 nonzeros.
Reduced MIP has 3 binaries, 1 generals, 0 SOSs, and 0 indicators.
Presolve time = 0.00 sec. (0.02 ticks)
Probing time = 0.00 sec. (0.00 ticks)
Clique table members: 1.
MIP emphasis: balance optimality and feasibility.
MIP search method: dynamic search.
Parallel mode: none, using 1 thread.
Root relaxation solution time = 0.00 sec. (0.02 ticks)

        Nodes                                         Cuts/
   Node  Left     Objective  IInf  Best Integer    Best Bound    ItCnt     Gap

*     0+    0                            7.0000        5.0000            28.57%
*     0     0      integral     0        5.0000        5.0000        1    0.00%
Elapsed time = 0.00 sec. (0.33 ticks, tree = 0.00 MB, solutions = 2)

Root node processing (before b&c):
  Real time             =    0.00 sec. (0.34 ticks)
Sequential b&c:
  Real time             =    0.00 sec. (0.00 ticks)
                          ------------
Total (root+branch&cut) =    0.00 sec. (0.34 ticks)

Solution pool: 2 solutions saved.

MIP - Integer optimal solution:  Objective =  5.0000000000e+00
Solution time =    0.00 sec.  Iterations = 1  Nodes = 0
Deterministic time = 0.34 ticks  (208.38 ticks/sec)


Incumbent solution written to file '/tmp/tmp0403MC.cplex.sol'.

Log started (V12.6.3.0) Mon Jul 24 16:46:03 2017

New value for default parallel thread count: 1

Problem '/tmp/tmpMNvi31.pyomo.lp' read.
Read time = 0.00 sec. (0.02 ticks)

Problem name         : /tmp/tmpMNvi31.pyomo.lp
Objective sense      : Minimize
Variables            :     236  [Nneg: 226,  Binary: 9,  General Integer: 1]
Objective nonzeros   :       1
Linear constraints   :     131  [Less: 9,  Equal: 122]
  Nonzeros           :     783
  RHS nonzeros       :      13

Variables            : Min LB: 0.000000         Max UB: 1.000000       
Objective nonzeros   : Min   : 1.000000         Max   : 1.000000       
Linear constraints   :
  Nonzeros           : Min   : 1.000000         Max   : 2651.900       
  RHS nonzeros       : Min   : 1.000000         Max   : 3200.000       
Tried aggregator 2 times.
MIP Presolve eliminated 117 rows and 218 columns.
MIP Presolve added 1 rows and 1 columns.
Aggregator did 2 substitutions.
Reduced MIP has 13 rows, 17 columns, and 45 nonzeros.
Reduced MIP has 3 binaries, 1 generals, 0 SOSs, and 0 indicators.
Presolve time = 0.00 sec. (0.20 ticks)
Found incumbent of value 7.000000 after 0.00 sec. (0.26 ticks)
Probing fixed 0 vars, tightened 1 bounds.
Probing time = 0.00 sec. (0.00 ticks)
Tried aggregator 1 time.
Reduced MIP has 13 rows, 17 columns, and 45 nonzeros.
Reduced MIP has 3 binaries, 1 generals, 0 SOSs, and 0 indicators.
Presolve time = 0.00 sec. (0.02 ticks)
Probing time = 0.00 sec. (0.00 ticks)
Clique table members: 1.
MIP emphasis: balance optimality and feasibility.
MIP search method: dynamic search.
Parallel mode: none, using 1 thread.
Root relaxation solution time = 0.00 sec. (0.02 ticks)

        Nodes                                         Cuts/
   Node  Left     Objective  IInf  Best Integer    Best Bound    ItCnt     Gap

*     0+    0                            7.0000        5.0000            28.57%
*     0     0      integral     0        5.0000        5.0000        1    0.00%
Elapsed time = 0.00 sec. (0.33 ticks, tree = 0.00 MB, solutions = 2)

Root node processing (before b&c):
  Real time             =    0.00 sec. (0.34 ticks)
Sequential b&c:
  Real time             =    0.00 sec. (0.00 ticks)
                          ------------
Total (root+branch&cut) =    0.00 sec. (0.34 ticks)

Solution pool: 2 solutions saved.

MIP - Integer optimal solution:  Objective =  5.0000000000e+00
Solution time =    0.00 sec.  Iterations = 1  Nodes = 0
Deterministic time = 0.34 ticks  (203.54 ticks/sec)


Incumbent solution written to file '/tmp/tmpm_3duT.cplex.sol'.

Log started (V12.6.3.0) Mon Jul 24 16:58:57 2017

New value for default parallel thread count: 1

Problem '/tmp/tmpCREqKk.pyomo.lp' read.
Read time = 0.00 sec. (0.02 ticks)

Problem name         : /tmp/tmpCREqKk.pyomo.lp
Objective sense      : Minimize
Variables            :     236  [Nneg: 226,  Binary: 9,  General Integer: 1]
Objective nonzeros   :       1
Linear constraints   :     131  [Less: 9,  Equal: 122]
  Nonzeros           :     783
  RHS nonzeros       :      13

Variables            : Min LB: 0.000000         Max UB: 1.000000       
Objective nonzeros   : Min   : 1.000000         Max   : 1.000000       
Linear constraints   :
  Nonzeros           : Min   : 1.000000         Max   : 2651.900       
  RHS nonzeros       : Min   : 1.000000         Max   : 3200.000       
Tried aggregator 2 times.
MIP Presolve eliminated 117 rows and 218 columns.
MIP Presolve added 1 rows and 1 columns.
Aggregator did 2 substitutions.
Reduced MIP has 13 rows, 17 columns, and 45 nonzeros.
Reduced MIP has 3 binaries, 1 generals, 0 SOSs, and 0 indicators.
Presolve time = 0.00 sec. (0.20 ticks)
Found incumbent of value 7.000000 after 0.00 sec. (0.26 ticks)
Probing fixed 0 vars, tightened 1 bounds.
Probing time = 0.00 sec. (0.00 ticks)
Tried aggregator 1 time.
Reduced MIP has 13 rows, 17 columns, and 45 nonzeros.
Reduced MIP has 3 binaries, 1 generals, 0 SOSs, and 0 indicators.
Presolve time = 0.00 sec. (0.02 ticks)
Probing time = 0.00 sec. (0.00 ticks)
Clique table members: 1.
MIP emphasis: balance optimality and feasibility.
MIP search method: dynamic search.
Parallel mode: none, using 1 thread.
Root relaxation solution time = 0.00 sec. (0.02 ticks)

        Nodes                                         Cuts/
   Node  Left     Objective  IInf  Best Integer    Best Bound    ItCnt     Gap

*     0+    0                            7.0000        5.0000            28.57%
*     0     0      integral     0        5.0000        5.0000        1    0.00%
Elapsed time = 0.00 sec. (0.33 ticks, tree = 0.00 MB, solutions = 2)

Root node processing (before b&c):
  Real time             =    0.00 sec. (0.34 ticks)
Sequential b&c:
  Real time             =    0.00 sec. (0.00 ticks)
                          ------------
Total (root+branch&cut) =    0.00 sec. (0.34 ticks)

Solution pool: 2 solutions saved.

MIP - Integer optimal solution:  Objective =  5.0000000000e+00
Solution time =    0.00 sec.  Iterations = 1  Nodes = 0
Deterministic time = 0.34 ticks  (214.51 ticks/sec)


Incumbent solution written to file '/tmp/tmptKM5J3.cplex.sol'.

Log started (V12.6.3.0) Wed Jul 26 16:03:14 2017

New value for default parallel thread count: 1

Problem '/tmp/tmpx1CA6I.pyomo.lp' read.
Read time = 0.00 sec. (0.02 ticks)

Problem name         : /tmp/tmpx1CA6I.pyomo.lp
Objective sense      : Minimize
Variables            :     236  [Nneg: 226,  Binary: 9,  General Integer: 1]
Objective nonzeros   :       1
Linear constraints   :     131  [Less: 9,  Equal: 122]
  Nonzeros           :     783
  RHS nonzeros       :      13

Variables            : Min LB: 0.000000         Max UB: 1.000000       
Objective nonzeros   : Min   : 1.000000         Max   : 1.000000       
Linear constraints   :
  Nonzeros           : Min   : 1.000000         Max   : 2651.900       
  RHS nonzeros       : Min   : 1.000000         Max   : 3200.000       
Tried aggregator 2 times.
MIP Presolve eliminated 117 rows and 218 columns.
MIP Presolve added 1 rows and 1 columns.
Aggregator did 2 substitutions.
Reduced MIP has 13 rows, 17 columns, and 45 nonzeros.
Reduced MIP has 3 binaries, 1 generals, 0 SOSs, and 0 indicators.
Presolve time = 0.00 sec. (0.20 ticks)
Found incumbent of value 7.000000 after 0.00 sec. (0.26 ticks)
Probing fixed 0 vars, tightened 1 bounds.
Probing time = 0.00 sec. (0.00 ticks)
Tried aggregator 1 time.
Reduced MIP has 13 rows, 17 columns, and 45 nonzeros.
Reduced MIP has 3 binaries, 1 generals, 0 SOSs, and 0 indicators.
Presolve time = 0.00 sec. (0.02 ticks)
Probing time = 0.00 sec. (0.00 ticks)
Clique table members: 1.
MIP emphasis: balance optimality and feasibility.
MIP search method: dynamic search.
Parallel mode: none, using 1 thread.
Root relaxation solution time = 0.00 sec. (0.02 ticks)

        Nodes                                         Cuts/
   Node  Left     Objective  IInf  Best Integer    Best Bound    ItCnt     Gap

*     0+    0                            7.0000        5.0000            28.57%
*     0     0      integral     0        5.0000        5.0000        1    0.00%
Elapsed time = 0.00 sec. (0.33 ticks, tree = 0.00 MB, solutions = 2)

Root node processing (before b&c):
  Real time             =    0.00 sec. (0.34 ticks)
Sequential b&c:
  Real time             =    0.00 sec. (0.00 ticks)
                          ------------
Total (root+branch&cut) =    0.00 sec. (0.34 ticks)

Solution pool: 2 solutions saved.

MIP - Integer optimal solution:  Objective =  5.0000000000e+00
Solution time =    0.00 sec.  Iterations = 1  Nodes = 0
Deterministic time = 0.34 ticks  (82.82 ticks/sec)


Incumbent solution written to file '/tmp/tmpWIluAT.cplex.sol'.
